1000
500 500
1 400 162
2 400 782
3 400 545
4 399 583
5 399 613
6 399 39
7 399 649
8 398 821
9 398 37
10 397 802
11 397 852
12 397 930
13 397 120
14 396 797
15 396 110
16 396 968
17 395 208
18 395 645
19 395 983
20 395 327
21 394 903
22 393 265
23 393 962
24 393 309
25 393 744
26 393 634
27 393 188
28 391 398
29 391 34
30 391 193
31 391 345
32 391 201
33 390 805
34 390 580
35 390 42
36 389 128
37 389 433
38 389 188
39 388 295
40 388 307
41 388 412
42 388 31
43 387 19
44 387 674
45 387 472
46 387 286
47 386 640
48 386 136
49 385 388
50 385 685
51 384 655
52 384 34
53 383 601
54 383 191
55 383 597
56 383 983
57 382 147
58 381 520
59 381 339
60 381 214
61 380 182
62 380 242
63 379 571
64 379 9
65 379 830
66 378 520
67 378 920
68 377 450
69 377 838
70 377 963
71 377 586
72 376 505
73 376 798
74 376 262
75 376 229
76 376 84
77 375 666
78 375 495
79 375 217
80 374 480
81 374 413
82 374 851
83 373 979
84 373 768
85 373 301
86 373 921
87 372 85
88 371 673
89 370 639
90 370 382
91 369 231
92 369 1000
93 368 668
94 368 71
95 368 129
96 368 587
97 367 68
98 365 521
99 365 700
100 365 966
101 365 136
102 365 684
103 364 748
104 364 740
105 364 786
106 364 391
107 364 664
108 363 557
109 363 804
110 363 759
111 362 981
112 362 571
113 362 551
114 361 798
115 361 638
116 361 567
117 360 309
118 359 863
119 359 231
120 359 839
121 358 230
122 357 241
123 357 832
124 357 27
125 357 881
126 356 401
127 356 781
128 356 19
129 356 583
130 355 372
131 355 272
132 354 823
133 354 323
134 354 394
135 353 305
136 353 67
137 353 166
138 353 826
139 353 781
140 352 49
141 352 362
142 351 730
143 351 279
144 351 343
145 350 580
146 350 899
147 350 665
148 350 445
149 348 972
150 348 331
151 347 403
152 347 880
153 347 285
154 347 646
155 346 542
156 346 668
157 346 139
158 346 896
159 346 512
160 345 262
161 345 699
162 345 954
163 345 560
164 344 60
165 344 478
166 344 18
167 343 178
168 343 902
169 343 760
170 342 506
171 342 375
172 342 309
173 342 340
174 341 457
175 341 167
176 341 218
177 341 54
178 341 623
179 341 945
180 341 264
181 340 496
182 340 679
183 340 30
184 340 661
185 339 986
186 339 684
187 338 315
188 338 431
189 338 204
190 337 690
191 337 652
192 337 985
193 337 957
194 337 369
195 336 82
196 336 454
197 336 498
198 335 136
199 334 402
200 334 994
201 334 460
202 334 891
203 333 421
204 333 450
205 333 397
206 333 192
207 333 65
208 333 234
209 332 897
210 332 653
211 332 768
212 332 706
213 332 458
214 331 800
215 331 542
216 331 511
217 331 543
218 331 559
219 331 409
220 330 76
221 329 827
222 328 478
223 328 962
224 327 624
225 326 960
226 326 547
227 326 319
228 326 108
229 325 519
230 324 916
231 323 361
232 323 986
233 323 763
234 323 734
235 323 166
236 322 704
237 321 447
238 321 715
239 319 562
240 318 973
241 318 532
242 317 774
243 317 81
244 316 999
245 316 181
246 316 176
247 316 959
248 315 909
249 315 121
250 314 714
251 314 731
252 314 432
253 313 506
254 313 530
255 313 717
256 312 584
257 312 237
258 312 448
259 312 930
260 312 258
261 312 527
262 312 136
263 312 479
264 311 393
265 311 170
266 311 604
267 310 158
268 309 701
269 308 634
270 308 562
271 308 726
272 308 469
273 308 70
274 306 756
275 306 284
276 306 985
277 305 254
278 305 35
279 305 810
280 304 832
281 304 249
282 303 554
283 303 209
284 303 756
285 303 271
286 303 740
287 303 755
288 302 151
289 302 228
290 302 664
291 302 762
292 301 999
293 301 527
294 301 358
295 301 525
296 300 829
297 300 265
298 299 317
299 298 310
300 297 866
301 297 820
302 296 593
303 295 936
304 295 108
305 295 935
306 295 475
307 294 533
308 294 268
309 293 922
310 293 493
311 293 479
312 293 504
313 292 787
314 292 748
315 291 278
316 291 485
317 291 602
318 290 45
319 290 386
320 290 484
321 290 340
322 289 686
323 289 940
324 289 249
325 288 19
326 287 688
327 287 180
328 286 222
329 286 623
330 286 518
331 286 193
332 285 723
333 285 611
334 285 29
335 285 890
336 284 549
337 284 475
338 284 273
339 284 562
340 283 80
341 282 908
342 282 243
343 281 76
344 281 31
345 281 688
346 281 845
347 281 997
348 281 644
349 280 866
350 280 617
351 279 397
352 279 618
353 279 617
354 278 720
355 278 196
356 278 980
357 277 607
358 277 81
359 275 994
360 275 130
361 274 103
362 274 711
363 273 89
364 273 855
365 273 154
366 272 747
367 272 488
368 271 214
369 271 884
370 271 151
371 271 446
372 271 188
373 270 989
374 270 578
375 270 5
376 270 651
377 269 588
378 269 198
379 269 843
380 268 65
381 268 196
382 267 365
383 267 14
384 267 656
385 265 607
386 265 502
387 264 117
388 264 617
389 264 140
390 262 658
391 262 827
392 262 991
393 262 97
394 262 924
395 261 4
396 261 64
397 261 262
398 261 30
399 260 249
400 260 505
401 260 498
402 260 827
403 260 695
404 260 232
405 260 471
406 259 57
407 259 856
408 257 628
409 257 769
410 257 746
411 256 265
412 256 576
413 256 330
414 256 320
415 255 641
416 255 900
417 255 33
418 254 540
419 254 214
420 253 442
421 253 113
422 253 345
423 253 661
424 252 37
425 251 606
426 251 3
427 251 851
428 250 5
429 250 919
430 250 989
431 250 288
432 249 767
433 249 715
434 249 689
435 249 334
436 249 251
437 249 324
438 248 285
439 248 102
440 248 377
441 248 953
442 248 914
443 248 807
444 247 873
445 247 119
446 246 579
447 246 894
448 245 275
449 245 635
450 244 376
451 244 43
452 244 96
453 244 354
454 244 806
455 243 14
456 243 873
457 242 595
458 242 276
459 242 931
460 241 745
461 240 914
462 239 245
463 238 696
464 237 818
465 236 186
466 236 764
467 236 25
468 236 96
469 235 622
470 235 216
471 234 533
472 234 946
473 234 368
474 234 168
475 234 353
476 233 829
477 233 650
478 233 141
479 232 570
480 232 644
481 231 208
482 231 988
483 231 406
484 230 317
485 230 218
486 229 103
487 229 899
488 228 117
489 228 865
490 226 773
491 226 671
492 226 436
493 226 810
494 225 980
495 225 786
496 225 983
497 225 145
498 224 363
499 224 31
500 224 886
501 223 432
502 223 295
503 222 859
504 222 983
505 220 796
506 220 709
507 220 186
508 220 978
509 220 973
510 220 32
511 219 390
512 218 533
513 218 665
514 218 798
515 218 40
516 218 204
517 218 334
518 217 726
519 217 537
520 217 740
521 217 975
522 216 51
523 216 739
524 216 606
525 216 599
526 216 674
527 216 842
528 215 752
529 214 763
530 214 558
531 214 52
532 214 815
533 214 16
534 214 755
535 214 328
536 213 961
537 213 906
538 213 823
539 212 393
540 212 620
541 212 84
542 212 187
543 212 623
544 211 620
545 211 928
546 210 632
547 210 508
548 209 902
549 209 759
550 208 762
551 208 280
552 208 198
553 208 773
554 207 859
555 207 986
556 207 693
557 207 20
558 207 32
559 206 943
560 206 436
561 205 922
562 205 798
563 205 136
564 205 964
565 204 415
566 204 78
567 204 142
568 203 541
569 203 300
570 203 740
571 201 917
572 201 643
573 201 40
574 201 549
575 200 400
576 200 261
577 199 649
578 198 614
579 198 724
580 198 675
581 197 983
582 197 985
583 197 114
584 197 373
585 197 766
586 196 829
587 196 858
588 196 923
589 195 420
590 195 466
591 195 542
592 194 510
593 194 773
594 193 977
595 193 918
596 192 749
597 192 880
598 192 626
599 190 43
600 190 256
601 190 766
602 190 399
603 190 380
604 189 891
605 189 916
606 189 844
607 188 514
608 188 388
609 188 5
610 188 357
611 188 33
612 187 333
613 187 243
614 186 488
615 186 182
616 186 423
617 186 524
618 185 3
619 185 202
620 185 611
621 185 728
622 184 615
623 184 863
624 183 995
625 183 64
626 183 56
627 183 205
628 183 595
629 183 9
630 183 377
631 182 881
632 182 142
633 182 931
634 181 924
635 181 626
636 181 842
637 181 294
638 181 193
639 180 205
640 179 132
641 179 785
642 178 651
643 178 975
644 178 409
645 178 97
646 177 914
647 177 79
648 176 776
649 176 825
650 176 631
651 175 849
652 175 891
653 174 736
654 174 411
655 174 234
656 174 808
657 174 950
658 173 134
659 173 990
660 172 592
661 172 124
662 171 987
663 171 871
664 170 824
665 170 108
666 170 554
667 168 589
668 168 673
669 167 56
670 167 10
671 167 500
672 167 872
673 166 900
674 166 623
675 165 289
676 165 237
677 165 830
678 164 864
679 164 995
680 164 274
681 164 47
682 163 384
683 163 89
684 162 612
685 162 600
686 162 241
687 162 945
688 162 258
689 162 172
690 161 684
691 161 683
692 161 994
693 160 847
694 159 385
695 159 230
696 158 7
697 158 153
698 157 563
699 157 873
700 156 751
701 156 921
702 156 385
703 156 759
704 156 14
705 156 426
706 156 195
707 155 667
708 155 576
709 155 342
710 154 185
711 154 628
712 153 762
713 153 864
714 153 840
715 153 283
716 152 855
717 152 427
718 152 973
719 151 859
720 151 539
721 151 86
722 151 62
723 149 702
724 149 364
725 149 784
726 148 131
727 148 48
728 147 969
729 147 746
730 147 21
731 147 430
732 145 654
733 145 819
734 145 231
735 145 491
736 144 806
737 144 177
738 144 498
739 144 207
740 144 856
741 143 480
742 143 17
743 142 115
744 142 37
745 141 228
746 141 92
747 141 88
748 140 499
749 139 20
750 139 484
751 138 76
752 138 697
753 138 767
754 137 368
755 137 279
756 137 770
757 137 137
758 136 182
759 136 984
760 136 458
761 136 450
762 135 238
763 134 154
764 134 686
765 134 559
766 132 549
767 131 521
768 131 168
769 131 637
770 131 226
771 130 861
772 130 957
773 129 464
774 129 8
775 129 126
776 129 268
777 129 937
778 129 745
779 128 829
780 127 835
781 127 984
782 126 538
783 125 813
784 125 809
785 125 957
786 125 461
787 124 866
788 124 687
789 123 708
790 123 354
791 122 973
792 122 504
793 122 113
794 122 138
795 122 999
796 121 169
797 120 701
798 120 83
799 120 820
800 119 91
801 119 511
802 118 382
803 118 283
804 118 349
805 118 694
806 117 924
807 117 186
808 116 26
809 116 438
810 116 652
811 116 296
812 116 915
813 116 646
814 115 165
815 115 286
816 114 167
817 114 588
818 114 459
819 114 292
820 113 356
821 113 61
822 113 261
823 112 743
824 112 847
825 112 122
826 111 4
827 111 514
828 111 180
829 110 822
830 110 223
831 110 268
832 109 700
833 109 395
834 108 162
835 107 193
836 106 82
837 106 466
838 105 473
839 105 964
840 105 813
841 105 224
842 105 83
843 104 416
844 104 270
845 104 531
846 104 306
847 104 622
848 103 59
849 103 987
850 101 365
851 101 468
852 101 965
853 100 258
854 100 915
855 100 130
856 99 538
857 99 884
858 99 240
859 99 796
860 99 390
861 98 300
862 98 37
863 98 493
864 98 616
865 98 343
866 98 390
867 97 644
868 97 569
869 96 762
870 96 453
871 95 368
872 94 455
873 94 995
874 93 187
875 93 952
876 93 755
877 92 686
878 92 319
879 92 2
880 92 33
881 91 897
882 90 392
883 90 229
884 90 727
885 90 273
886 89 176
887 89 572
888 88 425
889 88 705
890 88 731
891 87 323
892 87 999
893 87 711
894 87 719
895 86 284
896 86 810
897 86 566
898 85 882
899 85 90
900 85 311
901 85 448
902 84 164
903 83 501
904 82 883
905 82 892
906 82 123
907 81 902
908 81 303
909 80 623
910 80 904
911 80 54
912 80 6
913 80 31
914 80 392
915 80 434
916 80 954
917 79 178
918 78 508
919 78 302
920 77 776
921 77 689
922 77 79
923 76 584
924 76 661
925 76 859
926 76 140
927 76 484
928 75 467
929 75 704
930 75 397
931 75 17
932 74 607
933 74 481
934 74 8
935 74 593
936 73 95
937 73 493
938 73 503
939 73 773
940 72 637
941 72 588
942 71 494
943 70 132
944 70 587
945 69 569
946 69 742
947 68 508
948 68 160
949 68 440
950 68 387
951 68 893
952 67 930
953 67 338
954 66 118
955 65 84
956 65 392
957 65 479
958 65 10
959 64 490
960 64 845
961 64 461
962 64 17
963 64 3
964 63 520
965 63 108
966 63 327
967 62 534
968 62 650
969 62 973
970 62 792
971 62 482
972 61 944
973 60 888
974 60 43
975 59 572
976 59 19
977 58 28
978 58 925
979 58 90
980 58 527
981 57 13
982 56 99
983 56 735
984 56 570
985 56 435
986 55 379
987 55 806
988 55 753
989 54 882
990 54 382
991 53 818
992 53 835
993 52 752
994 52 575
995 51 832
996 51 556
997 50 451
998 50 566
999 50 195
1000 50 752
